mixintcount/benchmarks/random_v2l/5_5_1995.smt2
(set-logic QF_LIA)
(set-info :ran/ran2.smt2)
(set-info :smt-lib-version 2.0)
(declare-fun x1 () Int)
(declare-fun x2 () Int)
(declare-fun x3 () Int)
(declare-fun x4 () Int)
(declare-fun x5 () Int)
(assert (<= (+ (* 6 x1) (* (- 6) x2) (* 6 x3) (* (- 6) x4) (* 0 x5) ) 59))
(assert (<= (+ (* 2 x1) (* (- 4) x2) (* (- 10) x3) (* 2 x4) (* 9 x5) ) 68))
(assert (<= (+ (* 4 x1) (* (- 1) x2) (* 2 x3) (* 8 x4) (* (- 2) x5) ) 816))
(assert (<= (+ (* 10 x1) (* 3 x2) (* 5 x3) (* (- 8) x4) (* (- 9) x5) ) 940))
(assert (<= (+ (* 3 x1) (* (- 10) x2) (* 9 x3) (* (- 5) x4) (* 2 x5) ) (- 811)))
(assert (<= (+ (* 10 x1) (* (- 5) x2) (* 2 x3) (* 3 x4) (* (- 2) x5) ) (- 1403)))
(assert (<= (+ (* (- 1) x1) (* 8 x2) (* (- 4) x3) (* (- 1) x4) (* 0 x5) ) (- 1142)))
(assert (<= (+ (* 4 x1) (* (- 9) x2) (* 3 x3) (* (- 7) x4) (* 10 x5) ) 1726))
(assert (<= (+ (* 7 x1) (* 9 x2) (* 2 x3) (* 1 x4) (* 10 x5) ) (- 801)))
(assert (<= (+ (* (- 9) x1) (* 0 x2) (* 3 x3) (* 10 x4) (* 6 x5) ) 1411))
(assert (<= (+ (* 1 x1) (* 0 x2) (* 0 x3) (* 0 x4) (* 0 x5) ) 1995))
(assert (<= (+ (* (- 1) x1) (* 0 x2) (* 0 x3) (* 0 x4) (* 0 x5) ) 1995))
(assert (<= (+ (* 0 x1) (* 1 x2) (* 0 x3) (* 0 x4) (* 0 x5) ) 1995))
(assert (<= (+ (* 0 x1) (* (- 1) x2) (* 0 x3) (* 0 x4) (* 0 x5) ) 1995))
(assert (<= (+ (* 0 x1) (* 0 x2) (* 1 x3) (* 0 x4) (* 0 x5) ) 1995))
(assert (<= (+ (* 0 x1) (* 0 x2) (* (- 1) x3) (* 0 x4) (* 0 x5) ) 1995))
(assert (<= (+ (* 0 x1) (* 0 x2) (* 0 x3) (* 1 x4) (* 0 x5) ) 1995))
(assert (<= (+ (* 0 x1) (* 0 x2) (* 0 x3) (* (- 1) x4) (* 0 x5) ) 1995))
(assert (<= (+ (* 0 x1) (* 0 x2) (* 0 x3) (* 0 x4) (* 1 x5) ) 1995))
(assert (<= (+ (* 0 x1) (* 0 x2) (* 0 x3) (* 0 x4) (* (- 1) x5) ) 1995))
