mixintcount/benchmarks/random_v2l/5_5_1995.in
20 7
#	x1	x2	x3	x4	x5;		0 = Real; 1 = Integer
	1	1	1	1	1
1	6	-6	6	-6	0	59
1	2	-4	-10	2	9	68
1	4	-1	2	8	-2	816
1	10	3	5	-8	-9	940
1	3	-10	9	-5	2	-811
1	10	-5	2	3	-2	-1403
1	-1	8	-4	-1	0	-1142
1	4	-9	3	-7	10	1726
1	7	9	2	1	10	-801
1	-9	0	3	10	6	1411
1	1	0	0	0	0	1995
1	-1	0	0	0	0	1995
1	0	1	0	0	0	1995
1	0	-1	0	0	0	1995
1	0	0	1	0	0	1995
1	0	0	-1	0	0	1995
1	0	0	0	1	0	1995
1	0	0	0	-1	0	1995
1	0	0	0	0	1	1995
1	0	0	0	0	-1	1995
